(set-info :min-time 2.070856993)
; Start decls (14)
(declare-fun b10 () (_ FloatingPoint 8 24))
(declare-fun b11 () (_ FloatingPoint 8 24))
(declare-fun b14 () (_ FloatingPoint 8 24))
(declare-fun b17 () (_ FloatingPoint 8 24))
(declare-fun b20 () (_ FloatingPoint 8 24))
(declare-fun b23 () (_ FloatingPoint 8 24))
(declare-fun b26 () (_ FloatingPoint 8 24))
(declare-fun b29 () (_ FloatingPoint 8 24))
(declare-fun b32 () (_ FloatingPoint 8 24))
(declare-fun b35 () (_ FloatingPoint 8 24))
(declare-fun b38 () (_ FloatingPoint 8 24))
(declare-fun b41 () (_ FloatingPoint 8 24))
(declare-fun b69 () (_ FloatingPoint 8 24))
(declare-fun b72 () (_ FloatingPoint 8 24))
; End decls
; Start constraints (21)
(assert (fp.lt b69 b11))
(assert (let ((a!1 (fp.mul roundNearestTiesToEven
                   (fp.mul roundNearestTiesToEven
                           (fp.mul roundNearestTiesToEven
                                   (fp.mul roundNearestTiesToEven b11 b10)
                                   b14)
                           b17)
                   b20)))
(let ((a!2 (fp.mul roundNearestTiesToEven
                   (fp.mul roundNearestTiesToEven
                           (fp.mul roundNearestTiesToEven
                                   (fp.mul roundNearestTiesToEven a!1 b23)
                                   b26)
                           b29)
                   b32)))
  (fp.lt (fp.mul roundNearestTiesToEven
                 (fp.mul roundNearestTiesToEven a!2 b35)
                 b38)
         b41))))
(assert (fp.lt b11 b72))
(assert (fp.lt b69 b14))
(assert (fp.lt b14 b72))
(assert (fp.lt b69 b17))
(assert (fp.lt b17 b72))
(assert (fp.lt b69 b20))
(assert (fp.lt b20 b72))
(assert (fp.lt b69 b23))
(assert (fp.lt b23 b72))
(assert (fp.lt b69 b26))
(assert (fp.lt b26 b72))
(assert (fp.lt b69 b29))
(assert (fp.lt b29 b72))
(assert (fp.lt b69 b32))
(assert (fp.lt b32 b72))
(assert (fp.lt b69 b35))
(assert (fp.lt b35 b72))
(assert (fp.lt b69 b38))
(assert (fp.lt b38 b72))
; End constraints
(check-sat)
